NAME 
ROWS
 N  OBJ
 L  R0      
 L  R1      
 L  R2      
 E  R3      
 E  R4      
 E  R5      
 E  R6      
 E  R7      
 E  R8      
 E  R9      
 E  R10     
 E  R11     
 E  R12     
 E  R13     
 E  R14     
 E  R15     
 E  R16     
 E  R17     
 E  R18     
 E  R19     
 E  R20     
 E  R21     
 E  R22     
 E  R23     
 E  R24     
 E  R25     
 E  R26     
 E  R27     
COLUMNS
    MARKER    'MARKER'                 'INTORG'
    I0(16)    OBJ       -13
    I0(16)    R0        -181
    I0(16)    R1        79
    I0(16)    R2        -155
    I0(16)    R3        19
    I0(16)    R4        17
    I0(16)    R5        16
    I0(16)    R7        11
    I0(16)    R8        10
    I0(16)    R10       15
    I0(16)    R11       2
    I0(16)    R13       5
    I0(16)    R14       8
    I0(16)    R15       19
    I0(16)    R16       15
    I0(16)    R17       15
    I0(16)    R27       1
    I1(16)    OBJ       102
    I1(16)    R0        11
    I1(16)    R1        23
    I1(16)    R2        2
    I1(16)    R4        1
    I1(16)    R5        19
    I1(16)    R6        14
    I1(16)    R7        12
    I1(16)    R8        19
    I1(16)    R9        13
    I1(16)    R12       8
    I1(16)    R13       12
    I1(16)    R14       11
    I1(16)    R15       18
    I1(16)    R16       16
    I1(16)    R17       5
    I1(16)    R27       1
    I2(16)    OBJ       -191
    I2(16)    R0        -124
    I2(16)    R1        -186
    I2(16)    R2        -155
    I2(16)    R3        14
    I2(16)    R4        12
    I2(16)    R5        18
    I2(16)    R6        8
    I2(16)    R8        -1
    I2(16)    R9        15
    I2(16)    R10       18
    I2(16)    R12       18
    I2(16)    R13       8
    I2(16)    R14       8
    I2(16)    R15       17
    I2(16)    R16       10
    I2(16)    R27       1
    I3(19)    OBJ       16
    I3(19)    R0        -106
    I3(19)    R1        -92
    I3(19)    R2        15
    I3(19)    R3        15
    I3(19)    R4        14
    I3(19)    R5        19
    I3(19)    R6        8
    I3(19)    R7        15
    I3(19)    R8        14
    I3(19)    R9        15
    I3(19)    R10       5
    I3(19)    R11       15
    I3(19)    R12       -1
    I3(19)    R13       7
    I3(19)    R14       2
    I3(19)    R15       11
    I3(19)    R16       13
    I3(19)    R17       4
    I3(19)    R27       1
    I4(14)    OBJ       192
    I4(14)    R0        19
    I4(14)    R1        -28
    I4(14)    R2        16
    I4(14)    R3        9
    I4(14)    R5        5
    I4(14)    R7        11
    I4(14)    R8        6
    I4(14)    R9        19
    I4(14)    R11       8
    I4(14)    R12       1
    I4(14)    R15       6
    I4(14)    R16       10
    I4(14)    R17       15
    I4(14)    R27       1
    I5(15)    OBJ       101
    I5(15)    R0        60
    I5(15)    R1        -198
    I5(15)    R2        96
    I5(15)    R3        11
    I5(15)    R4        6
    I5(15)    R5        10
    I5(15)    R7        13
    I5(15)    R8        4
    I5(15)    R10       17
    I5(15)    R12       18
    I5(15)    R13       18
    I5(15)    R15       14
    I5(15)    R16       7
    I5(15)    R17       16
    I5(15)    R27       1
    I6(16)    OBJ       -107
    I6(16)    R0        -65
    I6(16)    R1        169
    I6(16)    R2        152
    I6(16)    R5        18
    I6(16)    R6        4
    I6(16)    R8        19
    I6(16)    R9        6
    I6(16)    R10       2
    I6(16)    R11       15
    I6(16)    R12       19
    I6(16)    R13       3
    I6(16)    R14       8
    I6(16)    R15       9
    I6(16)    R16       19
    I6(16)    R17       12
    I6(16)    R27       1
    I7(18)    OBJ       75
    I7(18)    R0        -125
    I7(18)    R1        118
    I7(18)    R2        133
    I7(18)    R3        5
    I7(18)    R5        3
    I7(18)    R6        2
    I7(18)    R7        2
    I7(18)    R8        11
    I7(18)    R9        -1
    I7(18)    R10       12
    I7(18)    R11       18
    I7(18)    R12       2
    I7(18)    R13       2
    I7(18)    R14       9
    I7(18)    R15       3
    I7(18)    R16       2
    I7(18)    R17       3
    I7(18)    R27       1
    I8(16)    OBJ       -97
    I8(16)    R0        18
    I8(16)    R1        -13
    I8(16)    R2        -47
    I8(16)    R4        16
    I8(16)    R5        2
    I8(16)    R6        16
    I8(16)    R7        5
    I8(16)    R8        2
    I8(16)    R10       4
    I8(16)    R11       13
    I8(16)    R12       9
    I8(16)    R13       17
    I8(16)    R14       13
    I8(16)    R16       9
    I8(16)    R17       11
    I8(16)    R27       1
    I9(16)    OBJ       86
    I9(16)    R0        -28
    I9(16)    R1        13
    I9(16)    R2        -51
    I9(16)    R3        5
    I9(16)    R4        14
    I9(16)    R5        19
    I9(16)    R6        13
    I9(16)    R8        7
    I9(16)    R9        -1
    I9(16)    R10       13
    I9(16)    R11       1
    I9(16)    R14       14
    I9(16)    R15       3
    I9(16)    R16       15
    I9(16)    R17       8
    I9(16)    R27       1
    I10(16)   OBJ       166
    I10(16)   R0        101
    I10(16)   R1        183
    I10(16)   R2        -144
    I10(16)   R4        4
    I10(16)   R5        10
    I10(16)   R6        6
    I10(16)   R8        5
    I10(16)   R10       3
    I10(16)   R11       6
    I10(16)   R12       16
    I10(16)   R13       15
    I10(16)   R14       19
    I10(16)   R15       4
    I10(16)   R16       12
    I10(16)   R17       13
    I10(16)   R27       1
    I11(13)   OBJ       111
    I11(13)   R0        -75
    I11(13)   R1        76
    I11(13)   R2        -16
    I11(13)   R4        12
    I11(13)   R5        13
    I11(13)   R10       17
    I11(13)   R11       9
    I11(13)   R12       1
    I11(13)   R13       19
    I11(13)   R15       5
    I11(13)   R16       4
    I11(13)   R17       -1
    I11(13)   R27       1
    I12(12)   OBJ       72
    I12(12)   R0        -105
    I12(12)   R1        173
    I12(12)   R2        -173
    I12(12)   R4        17
    I12(12)   R7        13
    I12(12)   R8        18
    I12(12)   R10       16
    I12(12)   R11       3
    I12(12)   R12       18
    I12(12)   R14       16
    I12(12)   R16       13
    I12(12)   R27       1
    I13(18)   OBJ       89
    I13(18)   R0        13
    I13(18)   R1        174
    I13(18)   R2        193
    I13(18)   R3        14
    I13(18)   R4        12
    I13(18)   R5        15
    I13(18)   R6        14
    I13(18)   R7        19
    I13(18)   R8        3
    I13(18)   R9        12
    I13(18)   R10       5
    I13(18)   R11       17
    I13(18)   R13       -1
    I13(18)   R14       13
    I13(18)   R15       7
    I13(18)   R16       17
    I13(18)   R17       17
    I13(18)   R27       1
    I14(15)   OBJ       -145
    I14(15)   R0        -71
    I14(15)   R1        -86
    I14(15)   R2        48
    I14(15)   R3        8
    I14(15)   R4        5
    I14(15)   R6        8
    I14(15)   R7        18
    I14(15)   R8        18
    I14(15)   R9        15
    I14(15)   R11       12
    I14(15)   R12       11
    I14(15)   R13       14
    I14(15)   R14       4
    I14(15)   R17       4
    I14(15)   R27       1
    MARKER    'MARKER'                 'INTEND'
    C15(23)   OBJ       4
    C15(23)   R0        -9
    C15(23)   R1        2
    C15(23)   R2        8
    C15(23)   R3        13
    C15(23)   R4        10
    C15(23)   R5        17
    C15(23)   R6        13
    C15(23)   R7        3
    C15(23)   R9        13
    C15(23)   R10       -1
    C15(23)   R11       4
    C15(23)   R13       18
    C15(23)   R14       -1
    C15(23)   R15       7
    C15(23)   R17       14
    C15(23)   R18       12
    C15(23)   R19       16
    C15(23)   R21       2
    C15(23)   R22       13
    C15(23)   R23       18
    C15(23)   R24       13
    C15(23)   R25       2
    C15(23)   R26       2
    C16(22)   OBJ       4
    C16(22)   R0        4
    C16(22)   R1        -3
    C16(22)   R2        -3
    C16(22)   R4        3
    C16(22)   R5        11
    C16(22)   R6        11
    C16(22)   R7        7
    C16(22)   R9        7
    C16(22)   R10       5
    C16(22)   R11       2
    C16(22)   R12       16
    C16(22)   R13       2
    C16(22)   R14       2
    C16(22)   R15       12
    C16(22)   R16       9
    C16(22)   R17       8
    C16(22)   R18       -1
    C16(22)   R20       6
    C16(22)   R21       12
    C16(22)   R23       12
    C16(22)   R24       11
    C16(22)   R26       19
    C17(20)   OBJ       4
    C17(20)   R0        1
    C17(20)   R1        -5
    C17(20)   R2        -3
    C17(20)   R3        1
    C17(20)   R4        15
    C17(20)   R5        9
    C17(20)   R6        17
    C17(20)   R7        8
    C17(20)   R9        17
    C17(20)   R10       15
    C17(20)   R12       4
    C17(20)   R14       9
    C17(20)   R16       1
    C17(20)   R17       5
    C17(20)   R18       5
    C17(20)   R19       9
    C17(20)   R20       14
    C17(20)   R22       14
    C17(20)   R23       6
    C17(20)   R26       15
    C18(20)   OBJ       -6
    C18(20)   R0        2
    C18(20)   R1        -9
    C18(20)   R2        7
    C18(20)   R3        4
    C18(20)   R4        4
    C18(20)   R6        18
    C18(20)   R7        13
    C18(20)   R8        1
    C18(20)   R9        8
    C18(20)   R11       13
    C18(20)   R14       11
    C18(20)   R15       14
    C18(20)   R16       7
    C18(20)   R17       10
    C18(20)   R18       15
    C18(20)   R20       1
    C18(20)   R23       9
    C18(20)   R24       8
    C18(20)   R25       15
    C18(20)   R26       17
    C19(22)   OBJ       -5
    C19(22)   R0        -5
    C19(22)   R1        -1
    C19(22)   R2        -4
    C19(22)   R3        7
    C19(22)   R4        11
    C19(22)   R5        2
    C19(22)   R7        10
    C19(22)   R10       19
    C19(22)   R11       16
    C19(22)   R13       7
    C19(22)   R15       2
    C19(22)   R16       5
    C19(22)   R17       6
    C19(22)   R18       8
    C19(22)   R19       14
    C19(22)   R20       3
    C19(22)   R21       19
    C19(22)   R22       4
    C19(22)   R23       3
    C19(22)   R24       10
    C19(22)   R25       16
    C19(22)   R26       4
    C20(18)   OBJ       -2
    C20(18)   R0        2
    C20(18)   R1        -10
    C20(18)   R2        2
    C20(18)   R3        4
    C20(18)   R4        14
    C20(18)   R5        11
    C20(18)   R6        2
    C20(18)   R9        7
    C20(18)   R14       19
    C20(18)   R15       10
    C20(18)   R16       19
    C20(18)   R17       16
    C20(18)   R18       13
    C20(18)   R19       3
    C20(18)   R20       5
    C20(18)   R21       10
    C20(18)   R22       10
    C20(18)   R26       12
    C21(22)   OBJ       -10
    C21(22)   R0        -2
    C21(22)   R1        -4
    C21(22)   R2        3
    C21(22)   R3        15
    C21(22)   R4        17
    C21(22)   R7        5
    C21(22)   R8        17
    C21(22)   R9        12
    C21(22)   R11       14
    C21(22)   R12       12
    C21(22)   R13       15
    C21(22)   R15       11
    C21(22)   R16       3
    C21(22)   R17       -1
    C21(22)   R19       1
    C21(22)   R20       6
    C21(22)   R21       7
    C21(22)   R22       8
    C21(22)   R23       5
    C21(22)   R24       19
    C21(22)   R25       16
    C21(22)   R26       13
    C22(24)   OBJ       9
    C22(24)   R0        8
    C22(24)   R1        -7
    C22(24)   R2        -5
    C22(24)   R4        11
    C22(24)   R5        16
    C22(24)   R6        6
    C22(24)   R7        16
    C22(24)   R8        12
    C22(24)   R9        19
    C22(24)   R10       16
    C22(24)   R11       16
    C22(24)   R13       3
    C22(24)   R14       2
    C22(24)   R15       12
    C22(24)   R16       12
    C22(24)   R17       15
    C22(24)   R18       9
    C22(24)   R19       17
    C22(24)   R20       12
    C22(24)   R21       19
    C22(24)   R22       10
    C22(24)   R23       1
    C22(24)   R24       17
    C22(24)   R25       1
    C23(21)   OBJ       7
    C23(21)   R0        7
    C23(21)   R1        -1
    C23(21)   R2        3
    C23(21)   R3        12
    C23(21)   R5        8
    C23(21)   R6        15
    C23(21)   R7        15
    C23(21)   R9        8
    C23(21)   R10       16
    C23(21)   R12       1
    C23(21)   R13       10
    C23(21)   R14       13
    C23(21)   R16       7
    C23(21)   R18       -1
    C23(21)   R19       17
    C23(21)   R21       13
    C23(21)   R22       10
    C23(21)   R23       15
    C23(21)   R24       16
    C23(21)   R25       4
    C23(21)   R26       6
    C24(22)   OBJ       9
    C24(22)   R0        1
    C24(22)   R1        -5
    C24(22)   R2        -9
    C24(22)   R3        9
    C24(22)   R4        9
    C24(22)   R5        15
    C24(22)   R6        13
    C24(22)   R7        1
    C24(22)   R8        11
    C24(22)   R10       15
    C24(22)   R11       16
    C24(22)   R12       14
    C24(22)   R13       17
    C24(22)   R14       2
    C24(22)   R15       19
    C24(22)   R16       17
    C24(22)   R17       3
    C24(22)   R18       19
    C24(22)   R20       10
    C24(22)   R22       14
    C24(22)   R24       8
    C24(22)   R26       8
    C25(1)    R3        1
    C26(1)    R4        1
    C27(1)    R5        1
    C28(1)    R6        1
    C29(1)    R7        1
    C30(1)    R8        1
    C31(1)    R9        1
    C32(1)    R10       1
    C33(1)    R11       1
    C34(1)    R12       1
    C35(1)    R13       1
    C36(1)    R14       1
    C37(1)    R15       1
    C38(1)    R16       1
    C39(1)    R17       1
    C40(1)    R18       1
    C41(1)    R19       1
    C42(1)    R20       1
    C43(1)    R21       1
    C44(1)    R22       1
    C45(1)    R23       1
    C46(1)    R24       1
    C47(1)    R25       1
    C48(1)    R26       1
    C49(1)    R27       1
RHS
    RHS1      R0        -4.2138095238095235e+02
    RHS1      R1        -4.8619047619047663e+01
    RHS1      R2        -1.4799999999999997e+02
    RHS1      R3        98
    RHS1      R4        82
    RHS1      R5        67
    RHS1      R6        74
    RHS1      R7        74
    RHS1      R8        62
    RHS1      R9        69
    RHS1      R10       66
    RHS1      R11       84
    RHS1      R12       99
    RHS1      R13       52
    RHS1      R14       66
    RHS1      R15       65
    RHS1      R16       62
    RHS1      R17       68
    RHS1      R18       93
    RHS1      R19       60
    RHS1      R20       70
    RHS1      R21       69
    RHS1      R22       87
    RHS1      R23       96
    RHS1      R24       89
    RHS1      R25       57
    RHS1      R26       70
    RHS1      R27       5
BOUNDS
 UP BND1      I0(16)    1
 UP BND1      I1(16)    1
 UP BND1      I2(16)    1
 UP BND1      I3(19)    1
 UP BND1      I4(14)    1
 UP BND1      I5(15)    1
 UP BND1      I6(16)    1
 UP BND1      I7(18)    1
 UP BND1      I8(16)    1
 UP BND1      I9(16)    1
 UP BND1      I10(16)   1
 UP BND1      I11(13)   1
 UP BND1      I12(12)   1
 UP BND1      I13(18)   1
 UP BND1      I14(15)   1
ENDATA
